WARNING: for repeatability, setting FPU to use double precision
============================[ Problem Statistics ]=============================
|                                                                             |
|  Number of variables:            50                                         |
|  Number of clauses:             218                                         |
|  Parse time:                   0.00 s                                       |
|                                                                             |
============================[ Search Statistics ]==============================
| Conflicts |          ORIGINAL         |          LEARNT          | Progress |
|           |    Vars  Clauses Literals |    Limit  Clauses Lit/Cl |          |
===============================================================================
===============================================================================
restarts              : 1
conflicts             : 86             (55093 /sec)
decisions             : 97             (0.00 % random) (62140 /sec)
propagations          : 1198           (767457 /sec)
conflict literals     : 320            (15.12 % deleted)
Memory used           : 20.00 MB
CPU time              : 0.001561 s

UNSATISFIABLE
